data/evidence/ss_sat/source_bundles/archived_roots/cadical_frat_surface_lrat_verified_root/external_solver_evidence_bundle_strong_cadical_frat/horn_chain_12.cadical.frat
o 1  1 0
o 2  -1 2 0
a 14  2 0  l 1 2 0
d 2  -1 2 0
o 3  -2 3 0
a 15  3 0  l 14 3 0
d 3  -2 3 0
o 4  -3 4 0
a 16  4 0  l 15 4 0
d 4  -3 4 0
o 5  -4 5 0
a 17  5 0  l 16 5 0
d 5  -4 5 0
o 6  -5 6 0
a 18  6 0  l 17 6 0
d 6  -5 6 0
o 7  -6 7 0
a 19  7 0  l 18 7 0
d 7  -6 7 0
o 8  -7 8 0
a 20  8 0  l 19 8 0
d 8  -7 8 0
o 9  -8 9 0
a 21  9 0  l 20 9 0
d 9  -8 9 0
o 10  -9 10 0
a 22  10 0  l 21 10 0
d 10  -9 10 0
o 11  -10 11 0
a 23  11 0  l 22 11 0
d 11  -10 11 0
o 12  -11 12 0
a 24  12 0  l 23 12 0
d 12  -11 12 0
o 13  -12 0
a 25  0  l 24 13 0
d 13  -12 0
f 1  1 0
f 14  2 0
f 15  3 0
f 16  4 0
f 17  5 0
f 18  6 0
f 19  7 0
f 20  8 0
f 21  9 0
f 22  10 0
f 23  11 0
f 24  12 0
f 25  0
