data/evidence/ss_sat/source_bundles/legacy_roots/cadical_lrat_checked_trace_typed_c_root/external_solver_evidence_bundle_strong_cadical_lrat/horn_chain_12.cadical.lrat
14 2 0 1 2 0
14 d 2 0
15 3 0 14 3 0
15 d 3 0
16 4 0 15 4 0
16 d 4 0
17 5 0 16 5 0
17 d 5 0
18 6 0 17 6 0
18 d 6 0
19 7 0 18 7 0
19 d 7 0
20 8 0 19 8 0
20 d 8 0
21 9 0 20 9 0
21 d 9 0
22 10 0 21 10 0
22 d 10 0
23 11 0 22 11 0
23 d 11 0
24 12 0 23 12 0
24 d 12 0
25 0 24 13 0
